p cnf 675 1616
c ind 650 666 542 662 639 644 645 663 653 625 0
c ind 544 669 672 656 668 655 657 647 670 664 0
c ind 665 673 667 652 654 671 630 646 659 660 0
c ind 546 651 661 638 627 562 626 558 559 579 0
c ind 593 623 580 598 595 552 658 547 551 549 0
c ind 594 642 643 548 561 550 636 641 640 583 0
c ind 586 628 567 599 609 606 632 637 631 634 0
c ind 608 568 607 610 635 622 648 613 602 629 0
c ind 633 611 649 570 573 596 591 615 590 612 0
c ind 587 617 572 620 614 619 616 584 621 575 0
c ind 597 592 618 563 553 566 574 585 605 557 0
c ind 588 565 589 556 600 604 578 576 603 624 0
c ind 560 554 571 581 564 577 555 569 601 543 0
c ind 582 545 1 0
c ret 374 497 498 499 500 501 502 503 409 504 0
c ret 375 410 505 506 507 508 411 509 510 511 0
c ret 512 513 514 376 515 516 517 518 412 519 0
c ret 413 520 521 377 522 523 524 525 526 527 0
c ret 528 529 530 531 532 533 534 535 536 537 0
c ret 378 538 539 540 541 379 414 380 415 416 0
c ret 417 381 366 382 418 383 419 420 384 421 0
c ret 385 422 386 387 423 388 424 425 367 389 0
c ret 390 426 427 428 429 430 431 432 391 433 0
c ret 392 393 434 435 394 436 437 438 439 440 0
c ret 441 368 395 442 443 444 445 446 447 448 0
c ret 449 396 397 398 399 400 450 401 451 452 0
c ret 369 402 453 454 455 456 457 370 458 459 0
c ret 460 461 462 463 464 465 466 371 467 468 0
c ret 469 470 471 472 403 473 404 474 475 476 0
c ret 477 405 406 478 372 479 480 481 482 407 0
c ret 408 483 484 485 486 487 488 373 489 490 0
c ret 491 492 493 494 495 496 0
2 36 240 -246 0
2 -3 240 -246 0
-2 246 0
-2 -240 0
-2 3 -36 0
3 -4 33 0
3 4 22 0
3 4 21 0
-3 -4 -33 0
-3 4 -21 -22 0
4 -19 -369 0
4 5 369 0
-4 -5 369 0
-4 19 -369 0
5 -16 -371 0
5 6 371 0
-5 -6 371 0
-5 16 -371 0
6 -9 -373 0
6 7 373 0
-6 -7 373 0
-6 9 -373 0
7 -391 -412 0
7 -8 -412 0
-7 412 0
-7 8 391 0
8 -384 -385 -413 0
-8 384 0
-8 385 0
-8 413 0
7 9 10 0
9 -10 441 0
-7 -9 10 0
-9 -10 -441 0
10 11 392 0
-10 -392 0
-10 -11 0
11 12 -442 0
-11 442 0
-11 -12 0
12 13 445 0
12 13 446 0
-12 -13 0
-12 -445 -446 0
13 14 -15 392 442 0
-13 15 0
-13 -14 0
-13 -392 0
-13 -442 0
14 393 402 -449 0
-14 449 0
-14 -402 0
-14 -393 0
15 -443 445 446 0
-15 443 0
-15 -446 0
-15 -445 0
16 -17 -466 0
6 16 17 0
-6 -16 17 0
-16 -17 466 0
11 17 -18 0
-11 -17 0
-17 18 0
18 373 392 0
-18 -373 0
-18 -392 0
5 19 20 0
19 -20 492 0
-5 -19 20 0
-19 -20 -492 0
11 -18 20 371 0
18 -20 0
-11 -20 0
-20 -371 0
21 545 564 0
-21 -545 0
-21 -564 0
22 23 543 0
-22 -543 0
-22 -23 0
23 -26 -545 0
23 24 545 0
-23 -24 545 0
-23 26 -545 0
24 -563 -584 0
24 -25 -584 0
-24 584 0
-24 25 563 0
25 -556 -557 -585 0
-25 556 0
-25 557 0
-25 585 0
24 26 27 0
26 -27 613 0
-24 -26 27 0
-26 -27 -613 0
27 28 564 0
-27 -564 0
-27 -28 0
28 29 -614 0
-28 614 0
-28 -29 0
29 30 617 0
29 30 618 0
-29 -30 0
-29 -617 -618 0
30 31 -32 564 614 0
-30 32 0
-30 -31 0
-30 -564 0
-30 -614 0
31 565 574 -621 0
-31 621 0
-31 -574 0
-31 -565 0
32 -615 617 618 0
-32 615 0
-32 -618 0
-32 -617 0
-23 33 543 0
33 34 -543 0
-33 -34 -543 0
23 -33 543 0
34 -35 -638 0
23 34 35 0
-23 -34 35 0
-34 -35 638 0
-21 28 35 0
-28 -35 0
21 -35 0
36 -54 -67 0
36 37 -67 543 0
-36 67 0
-36 -37 54 0
-36 54 -543 0
37 38 53 0
-23 37 38 -41 0
-37 -38 0
23 -37 -53 0
-37 41 -53 0
38 545 639 645 0
38 39 -545 639 -645 0
-38 -545 645 0
-38 -39 -645 0
-38 -639 0
-38 545 -645 0
39 -40 -545 -642 0
39 -40 545 -643 0
-39 40 0
-39 -545 642 0
-39 545 643 0
40 592 -640 0
40 -640 -641 0
-40 640 0
-40 -592 641 0
41 -49 633 644 0
41 -42 -49 644 0
-41 49 0
-41 -644 0
-41 42 -633 0
42 -47 624 631 0
42 -43 -47 631 0
-42 47 0
-42 -631 0
-42 43 -624 0
43 -545 624 0
43 -44 545 0
-43 -545 -624 0
-43 44 545 0
44 -46 571 0
44 -46 -582 0
44 45 -46 0
-44 46 0
-44 -45 -571 582 0
45 601 603 604 -605 0
-45 605 0
-45 -604 0
-45 -601 0
-45 -603 0
46 603 604 0
46 582 601 0
46 601 604 0
46 582 603 0
-46 -601 -603 0
-46 -582 -604 0
47 -48 545 0
-47 -545 0
-47 48 0
48 -582 601 0
48 582 600 0
-48 582 -600 0
-48 -582 -601 0
49 -545 622 0
49 -50 545 0
-49 -545 -622 0
-49 50 545 0
50 51 553 0
50 51 575 576 0
-50 -51 0
-50 -553 -576 0
-50 -553 -575 0
51 52 554 -575 -576 0
-51 -554 0
-51 -52 0
-51 576 0
-51 575 0
52 -577 -578 0
-52 577 0
-52 578 0
-39 53 -545 -639 0
-53 545 0
-53 639 0
39 -53 0
34 54 -55 60 -64 0
-54 55 0
-54 -60 0
-34 -54 0
-54 64 0
55 56 59 0
-42 55 56 0
-55 -56 0
42 -55 -59 0
56 57 633 0
-56 -633 0
-56 -57 0
57 -58 -624 0
57 624 634 0
-57 624 -634 0
-57 58 -624 0
58 581 582 0
58 569 -582 0
-58 -581 582 0
-58 -569 -582 0
-47 59 632 0
59 624 632 0
-59 -632 0
47 -59 -624 0
60 61 545 0
-60 -545 0
-60 -61 0
61 62 63 0
-61 -62 0
-61 -63 0
62 -590 591 -592 0
-62 590 0
-62 -591 0
-62 592 0
-50 63 -555 0
-63 555 0
50 -63 0
64 65 66 -543 545 0
-64 -66 0
-64 -65 0
-64 543 0
-64 -545 0
58 65 633 0
-65 -633 0
-58 -65 0
66 -545 635 0
66 -560 635 0
-66 -635 0
-66 545 560 0
-33 67 69 -91 0
67 -68 69 -91 0
-67 91 0
-67 -69 0
33 -67 68 0
-21 68 543 0
-68 -543 0
21 -68 0
69 -70 88 0
69 -82 88 0
69 -84 88 0
-69 -88 0
-69 70 82 84 0
70 77 523 525 0
70 -71 77 523 0
-70 -523 0
-70 -77 0
-70 71 -525 0
71 -369 500 0
71 -72 369 0
-71 -369 -500 0
-71 72 369 0
72 -371 477 0
72 -73 371 0
-72 -371 -477 0
-72 73 371 0
73 -373 452 0
73 -74 373 0
-73 -373 -452 0
-73 74 373 0
74 -76 399 0
74 -76 -410 0
74 75 -76 0
-74 76 0
-74 -75 -399 410 0
75 429 431 432 -433 0
-75 433 0
-75 -432 0
-75 -429 0
-75 -431 0
76 431 432 0
76 410 429 0
76 429 432 0
76 410 431 0
-76 -429 -431 0
-76 -410 -432 0
77 78 -500 0
77 78 -524 0
-77 -78 0
-77 500 524 0
78 79 369 0
78 -369 477 499 0
-78 -369 -477 0
-78 -79 369 0
-78 -369 -499 0
79 -371 -452 0
79 80 371 0
79 -371 -476 0
-79 -80 371 0
-79 -371 452 476 0
80 -81 373 0
-80 -373 0
-80 81 0
81 -410 429 0
81 410 428 0
-81 410 -428 0
-81 -410 -429 0
82 83 657 0
82 649 657 0
-82 -657 0
-82 -83 -649 0
83 -543 -624 0
47 83 543 0
83 -543 -648 0
-47 -83 543 0
-83 -543 624 648 0
84 86 649 656 0
84 -85 86 656 0
-84 -86 0
-84 -656 0
-84 85 -649 0
85 -543 649 0
-43 85 543 0
-85 -543 -649 0
43 -85 543 0
86 87 -624 0
86 87 -648 0
-86 -87 0
-86 624 648 0
-47 87 543 0
-87 -543 0
47 -87 0
82 -84 88 -90 0
-84 88 -89 -90 0
-88 90 0
84 -88 0
-82 -88 89 0
-78 89 526 0
89 525 526 0
-89 -526 0
78 -89 -525 0
-59 90 543 0
-90 -543 0
59 -90 0
-70 91 -92 -231 0
84 91 -92 -231 0
-91 231 0
-91 92 0
70 -84 -91 0
-23 92 -93 230 0
-21 92 -93 230 0
-92 93 0
-92 -230 0
21 23 -92 0
-55 93 -94 -123 -125 0
-93 125 0
55 -93 0
-93 123 0
-93 94 0
-90 94 -95 117 0
82 94 -95 117 0
-94 95 0
-94 -117 0
-82 90 -94 0
95 -99 571 0
95 96 97 -99 0
-95 99 0
-95 -97 -571 0
-95 -96 -571 0
-48 96 606 0
-96 -606 0
48 -96 0
-44 -48 97 599 0
-44 97 -98 599 0
-97 -599 0
44 -97 0
48 -97 98 0
98 602 603 0
98 -582 603 0
98 570 582 -603 0
-98 -570 -603 0
-98 -582 -603 0
-98 582 -602 603 0
99 100 -105 -111 0
99 -102 105 111 0
99 100 105 111 0
99 -102 -105 -111 0
-99 105 -111 0
-99 -105 111 0
-99 -100 102 0
100 -101 669 0
25 100 -101 567 0
-100 101 0
-25 -100 -669 0
-100 -567 -669 0
101 543 545 0
-101 -543 0
-101 -545 0
102 -103 537 0
8 102 -103 395 0
-102 103 0
-8 -102 -537 0
-102 -395 -537 0
103 -104 369 0
-103 -369 0
-103 104 0
104 371 373 0
-104 -371 0
-104 -373 0
105 -107 576 0
105 106 -107 578 0
-105 107 0
-105 -106 -576 0
-105 -576 -578 0
106 554 -588 0
-106 -554 0
-106 588 0
107 -108 -109 554 0
107 108 -109 110 0
-107 109 0
-107 108 -110 0
-107 -108 -554 0
108 -555 -589 0
-108 555 0
-108 589 0
-101 109 577 0
-109 -577 0
101 -109 0
110 -578 -588 0
-110 578 0
-110 588 0
111 -113 -115 404 0
111 -112 -113 -115 0
-111 115 0
-111 113 0
-111 112 -404 0
112 406 416 0
112 -382 406 0
-112 -406 0
-112 382 -416 0
113 -114 405 0
-113 -405 0
-113 114 0
114 369 371 373 0
-114 -369 0
-114 -373 0
-114 -371 0
115 116 406 0
115 -116 382 0
115 116 416 0
-115 -116 -382 0
-115 116 -406 -416 0
116 -383 -417 0
-116 383 0
-116 417 0
-40 117 -118 0
117 -118 120 0
-117 118 0
40 -117 -120 0
118 -543 -664 0
118 -119 543 0
-118 119 543 0
-118 -543 664 0
119 -545 -642 0
119 545 -643 0
-119 545 643 0
-119 -545 642 0
120 -369 -515 0
120 -121 369 0
-120 121 369 0
-120 -369 515 0
121 -371 -494 0
121 -122 371 0
-121 122 371 0
-121 -371 494 0
122 -373 -470 0
122 373 -471 0
-122 373 471 0
-122 -373 470 0
56 -82 123 124 0
56 89 123 124 0
-56 -123 0
-123 -124 0
82 -89 -123 0
42 -90 124 0
-42 -124 0
90 -124 0
125 -126 -134 -162 -226 0
-125 226 0
-125 126 0
-125 162 0
-125 134 0
126 127 129 131 133 0
126 127 -129 -131 133 0
-126 -133 0
-126 -129 131 0
-126 -127 0
-126 129 -131 0
-101 127 -128 -555 0
-127 555 0
101 -127 0
-127 128 0
128 -543 646 0
-49 128 543 0
-128 -543 -646 0
49 -128 543 0
-114 129 -442 0
114 129 130 0
-114 -129 442 0
114 -129 -130 0
-12 130 442 0
-12 130 392 0
12 -130 0
-130 -392 -442 0
-101 131 -614 0
101 131 132 0
-101 -131 614 0
101 -131 -132 0
-29 132 614 0
-29 132 564 0
29 -132 0
-132 -564 -614 0
-42 133 -606 0
-133 606 0
42 -133 0
134 -135 -139 -144 -158 0
-134 158 0
-134 135 0
-134 144 0
-134 139 0
135 -138 564 0
24 135 136 0
24 135 -138 0
135 136 564 0
-24 -135 -564 0
-135 -136 138 0
136 -137 -525 0
136 525 529 0
-136 525 -529 0
-136 137 -525 0
137 409 410 0
137 397 -410 0
-137 -409 410 0
-137 -397 -410 0
-58 138 -649 0
138 649 660 0
-138 649 -660 0
58 -138 -649 0
139 140 141 -142 143 0
139 -140 -141 142 -143 0
139 140 141 142 -143 0
139 -140 -141 -142 143 0
-139 140 -141 0
-139 -140 141 0
-139 142 143 0
-139 -142 -143 0
-101 140 -616 0
-140 616 0
101 -140 0
-114 141 -444 0
-141 444 0
114 -141 0
142 672 673 0
142 618 -673 0
142 -618 673 0
-142 -618 -673 0
-142 618 -672 673 0
143 -446 -541 0
143 446 -540 541 0
-143 540 541 0
-143 446 -541 0
-143 -446 541 0
63 -136 144 -145 0
63 138 144 -145 0
-63 -144 0
-144 145 0
136 -138 -144 0
145 -146 -152 155 157 0
-145 152 0
-145 -157 0
-145 146 0
-145 -155 0
146 147 148 150 151 0
146 -147 -148 150 151 0
-146 -150 0
-146 -147 148 0
-146 -151 0
-146 147 -148 0
147 543 545 560 0
-147 -543 0
-147 -560 0
-147 -545 0
148 -149 369 371 0
-148 149 0
-148 -371 0
-148 -369 0
149 373 388 0
-149 -373 0
-149 -388 0
101 -103 150 0
-101 -150 0
103 -150 0
151 -545 627 0
151 -560 627 0
151 -610 627 0
-151 -627 0
-151 545 560 610 0
-147 152 153 0
152 153 -652 -661 0
-152 -153 0
147 -152 652 0
147 -152 661 0
-68 153 154 0
68 -153 0
-153 -154 0
-18 154 369 371 0
18 -154 0
-154 -371 0
-154 -369 0
155 -156 -564 -565 566 0
-155 156 0
-155 564 0
-155 565 0
-155 -566 0
156 -556 -563 0
-156 556 0
-156 563 0
-66 157 543 0
-157 -543 0
66 -157 0
60 158 159 160 161 0
60 158 -159 -160 161 0
-158 -161 0
-158 -159 160 0
-60 -158 0
-158 159 -160 0
101 159 592 0
-101 159 668 0
-101 -159 -668 0
101 -159 -592 0
103 160 420 0
-103 160 536 0
-103 -160 -536 0
103 -160 -420 0
58 161 607 -608 0
58 98 161 607 0
-161 -607 0
-58 -161 0
-98 -161 608 0
162 -163 -169 -174 -176 0
-162 176 0
-162 163 0
-162 174 0
-162 169 0
163 164 165 166 167 0
163 164 -165 -166 167 0
-163 -167 0
-163 -165 166 0
-163 -164 0
-163 165 -166 0
-101 164 -418 590 0
-101 103 164 590 0
101 -164 0
-164 -590 0
-103 -164 418 0
-101 165 591 0
-165 -591 0
101 -165 0
-103 166 419 0
-166 -419 0
103 -166 0
167 -168 -548 0
167 -548 550 -552 0
-167 548 0
-167 168 -550 0
-167 168 552 0
168 -547 549 -550 551 0
-168 550 0
-168 -551 0
-168 547 0
-168 -549 0
109 169 170 -171 0
-113 169 170 -171 0
-169 171 0
-169 -170 0
-109 113 -169 0
101 -114 170 -535 0
-114 170 -535 667 0
114 -170 0
-170 535 0
-101 -170 -667 0
171 173 -658 0
-58 171 173 0
171 -172 173 0
-171 -173 0
58 -171 172 658 0
172 624 648 659 0
-172 -624 0
-172 -659 0
-172 -648 0
-103 173 418 -590 0
101 -103 173 418 0
-173 -418 0
103 -173 0
-101 -173 590 0
174 175 -658 0
-57 -138 174 175 0
-174 -175 0
138 -174 658 0
57 -174 658 0
100 -102 175 0
-100 -175 0
102 -175 0
176 -177 -200 -204 -207 0
-176 207 0
-176 177 0
-176 204 0
-176 200 0
177 -178 -183 -186 -189 0
-177 189 0
-177 178 0
-177 186 0
-177 183 0
178 -179 -180 -181 -182 0
-178 182 0
-178 179 0
-178 181 0
-178 180 0
179 -571 -607 0
179 572 573 0
179 -571 573 0
179 572 -607 0
-179 571 -572 0
-179 -573 607 0
180 -420 594 0
180 546 592 0
180 592 594 0
180 -420 546 0
-180 -546 -594 0
-180 420 -592 0
181 -449 560 0
181 -586 621 0
181 560 621 0
181 -449 -586 0
-181 -560 586 0
-181 449 -621 0
182 -530 586 0
182 -595 661 0
182 586 661 0
182 -530 -595 0
-182 -586 595 0
-182 530 -661 0
183 184 185 468 640 0
183 184 185 -468 -640 0
-183 -184 0
-183 -468 640 0
-183 -185 0
-183 468 -640 0
184 -560 595 0
-184 560 0
-184 -595 0
185 -401 573 0
-185 401 0
-185 -573 0
186 -187 188 -592 0
186 -187 188 420 0
-186 187 0
-186 -188 0
-186 -420 592 0
187 -539 -661 0
187 530 671 0
187 530 -539 0
187 -661 671 0
-187 -530 661 0
-187 539 -671 0
188 469 -641 0
-188 -469 0
-188 641 0
58 189 -190 -193 -194 0
-58 -189 0
-189 194 0
-189 193 0
-189 190 0
190 191 -192 -573 -593 0
-190 192 0
-190 573 0
-190 593 0
-190 -191 0
191 565 574 0
-191 -565 0
-191 -574 0
192 594 -598 -625 626 0
-192 -594 0
-192 -626 0
-192 625 0
-192 598 0
193 -630 -650 651 -655 0
-193 655 0
-193 630 0
-193 650 0
-193 -651 0
101 194 -195 198 -199 0
-194 195 0
-194 -198 0
-101 -194 0
-194 199 0
195 196 197 542 -651 0
195 196 197 -542 651 0
-195 -196 0
-195 542 651 0
-195 -197 0
-195 -542 -651 0
196 546 594 0
-196 -546 0
-196 -594 0
197 -469 641 0
-197 469 0
-197 -641 0
198 -560 610 0
-198 560 0
-198 -610 0
199 449 539 0
199 -621 -671 0
199 449 -671 0
199 539 -621 0
-199 -449 621 0
-199 -539 671 0
-68 200 -201 203 0
154 200 -201 203 0
-200 201 0
-200 -203 0
68 -154 -200 0
-103 201 202 0
101 -172 201 0
-103 -172 201 0
101 201 202 0
172 -201 -202 0
-101 103 -201 0
202 500 524 528 0
-202 -500 0
-202 -528 0
-202 -524 0
-114 203 -383 0
-203 383 0
114 -203 0
62 65 204 -205 0
65 101 204 -205 0
-204 205 0
-65 -204 0
-62 -101 -204 0
-58 172 205 0
-202 205 -206 0
172 205 -206 0
-58 -202 205 0
-172 202 -205 0
58 -205 206 0
206 -568 -607 -633 0
206 583 -607 -633 0
-206 633 0
-206 607 0
-206 568 -583 0
207 -208 -212 -219 -222 0
-207 222 0
-207 208 0
-207 219 0
-207 212 0
57 58 137 208 -209 0
57 -58 -137 208 -209 0
-208 209 0
58 -137 -208 0
-57 -208 0
-58 137 -208 0
113 209 560 0
-109 209 -210 0
-109 209 560 0
113 209 -210 0
-209 210 -560 0
109 -113 -209 0
210 211 -559 -579 0
210 211 558 -579 0
-210 579 0
-210 -211 0
-210 -558 559 0
211 561 -562 0
211 561 580 0
-211 -561 0
-211 562 -580 0
62 66 212 -213 -217 0
-62 -212 0
-212 217 0
-212 213 0
-66 -212 0
213 -214 216 527 658 0
213 -214 216 -527 -658 0
-213 -216 0
-213 -527 658 0
-213 214 0
-213 527 -658 0
214 215 564 0
214 215 -556 0
214 215 -563 0
-214 -215 0
-214 556 563 -564 0
215 553 -554 -555 0
-215 555 0
-215 554 0
-215 -553 0
216 568 -569 -570 0
-216 570 0
-216 569 0
-216 -568 0
217 218 560 0
217 218 -545 0
217 218 -610 0
-217 -218 0
-217 545 -560 610 0
218 568 -573 0
218 401 -573 0
-218 573 0
-218 -401 -568 0
219 -220 -652 0
219 -220 543 635 0
-219 220 0
-219 -635 652 0
-219 -543 652 0
220 221 564 0
220 221 -556 0
220 221 -567 0
-220 -221 0
-220 556 -564 567 0
221 -525 649 670 0
221 -538 649 670 0
-221 -670 0
-221 -649 0
-221 525 538 0
222 -223 225 -544 626 0
222 -223 225 544 -626 0
-222 -225 0
-222 544 626 0
-222 223 0
-222 -544 -626 0
223 224 -556 -557 0
223 224 556 -565 0
-223 -224 0
-223 -556 557 0
-223 556 565 0
224 533 -665 0
224 -533 665 0
-224 -533 -665 0
-224 533 665 0
225 525 538 -670 0
225 525 538 -649 0
-225 -525 0
-225 -538 0
-225 649 670 0
78 -83 226 -227 -229 0
-78 83 226 -227 -229 0
-226 229 0
78 83 -226 0
-226 227 0
-78 -83 -226 0
-118 227 228 0
120 227 228 0
-227 -228 0
118 -120 -227 0
-96 97 228 0
96 -228 0
-97 -228 0
-130 -132 229 0
130 132 229 0
130 -132 -229 0
-130 132 -229 0
71 -85 230 0
-71 85 230 0
-71 -85 -230 0
71 85 -230 0
128 231 -232 238 0
-128 231 232 238 0
-231 -238 0
128 -231 232 0
-128 -231 -232 0
232 -369 -497 0
232 233 369 0
-232 -369 497 0
-232 -233 369 0
233 -371 474 0
233 -234 371 0
-233 -371 -474 0
-233 234 371 0
234 -373 450 0
234 -235 373 0
-234 -373 -450 0
-234 235 373 0
235 236 381 0
235 236 403 404 0
-235 -236 0
-235 -381 -404 0
-235 -381 -403 0
236 237 382 -403 -404 0
-236 -382 0
-236 -237 0
-236 404 0
-236 403 0
237 -405 -406 0
-237 405 0
-237 406 0
-228 238 -545 0
238 239 -545 0
26 238 -545 0
-238 545 0
-26 228 -238 -239 0
-61 198 239 -607 0
-58 -61 198 239 0
61 -239 0
-198 -239 0
58 -239 607 0
-120 240 -245 367 0
-120 240 -241 -245 0
-240 245 0
120 -240 0
-240 241 -367 0
-4 241 -244 509 0
-4 241 -242 -244 0
-241 244 0
4 -241 0
-241 242 -509 0
242 243 500 507 0
-71 242 243 507 0
-242 -243 0
-242 -507 0
71 -242 -500 0
78 243 -477 0
78 243 -499 0
-78 -243 0
-243 477 499 0
232 244 516 0
-244 -516 0
-232 -244 0
245 420 -468 0
245 -468 -469 0
-245 468 0
-245 -420 469 0
4 -154 246 -247 0
-4 246 -247 365 0
-246 247 0
-4 -246 -365 0
4 154 -246 0
247 -256 -268 0
247 248 -268 369 0
-247 268 0
-247 -248 256 0
-247 256 -369 0
248 249 255 0
5 248 249 -251 0
-248 -249 0
-5 -248 -255 0
-248 251 -255 0
-104 249 493 496 0
104 249 250 493 -496 0
-104 -249 -496 0
104 -249 -250 0
-249 -493 0
104 -249 496 0
-121 -245 250 0
121 -250 0
245 -250 0
-233 251 -252 495 0
-233 251 486 495 0
233 -251 0
-251 -495 0
-251 252 -486 0
252 253 477 484 0
-72 252 253 484 0
-252 -253 0
-252 -484 0
72 -252 -477 0
253 254 -452 0
253 254 -476 0
-253 -254 0
-253 452 476 0
-80 254 371 0
-254 -371 0
80 -254 0
104 -250 255 -493 0
-255 493 0
-104 -255 0
250 -255 0
-19 256 -257 -261 -265 0
-256 265 0
19 -256 0
-256 261 0
-256 257 0
257 258 260 0
-252 257 258 0
-257 -258 0
252 -257 -260 0
258 259 486 0
-258 -486 0
-258 -259 0
-137 259 -477 0
259 477 488 0
-259 477 -488 0
137 -259 -477 0
79 260 485 0
260 477 485 0
-260 -485 0
-79 -260 -477 0
261 262 263 0
-261 -262 0
-261 -263 0
149 262 489 0
262 -371 489 0
-262 -489 0
-149 -262 371 0
-104 263 -264 0
-104 -233 263 -383 0
104 -263 0
233 -263 264 0
-263 264 383 0
264 -418 419 -420 0
-264 418 0
-264 -419 0
-264 420 0
-104 264 265 266 -369 0
104 -265 0
-265 -266 0
-265 369 0
-264 -265 0
137 266 486 -487 0
137 266 267 486 0
-266 -486 0
-137 -266 0
-266 -267 487 0
267 452 476 0
-267 -452 0
-267 -476 0
5 268 -269 0
-18 268 -269 371 0
-268 269 0
-5 -268 -371 0
-5 18 -268 0
269 -276 -284 0
269 270 -284 371 0
-269 284 0
-269 -270 276 0
-269 276 -371 0
270 271 275 0
-6 270 271 -273 0
-270 -271 0
6 -270 -275 0
-270 273 -275 0
271 373 467 473 0
271 272 -373 467 -473 0
-271 -373 473 0
-271 -272 -473 0
-271 -467 0
-271 373 -473 0
-245 272 -373 -470 0
-245 272 373 -471 0
245 -272 0
-272 -373 470 0
-272 373 471 0
-234 273 -274 472 0
-234 273 461 472 0
234 -273 0
-273 -472 0
-273 274 -461 0
-80 274 452 459 0
-73 -80 274 459 0
80 -274 0
-274 -459 0
73 -274 -452 0
-272 275 -373 -467 0
-275 373 0
-275 467 0
272 -275 0
16 276 277 279 -281 0
-276 281 0
-276 -279 0
-16 -276 0
-276 -277 0
274 277 -278 0
-274 -277 0
-277 278 0
-80 278 460 0
278 452 460 0
-278 -460 0
80 -278 -452 0
-264 279 373 0
279 -280 373 0
-279 -373 0
264 -279 280 0
-235 280 -383 0
-280 383 0
235 -280 0
281 -283 -461 0
-137 281 -282 -283 0
-281 283 0
-281 282 461 0
137 -281 461 0
-137 282 -452 0
282 452 462 0
-282 452 -462 0
137 -282 -452 0
283 -371 373 388 0
283 -371 373 -463 0
-283 371 0
-283 -373 0
-283 -388 463 0
284 -285 -288 359 -360 0
-284 360 0
-284 285 0
-284 288 0
-284 -359 0
70 -242 285 -287 0
70 242 285 286 0
-242 285 -286 -287 0
242 -285 -286 0
-242 -285 287 0
-70 -285 286 0
-78 286 508 0
286 500 508 0
-286 -508 0
78 -286 -500 0
-260 287 369 0
-287 -369 0
260 -287 0
-257 -261 288 -289 0
257 -288 0
261 -288 0
-288 289 0
-6 289 -290 -350 0
-18 289 -290 -350 0
-289 350 0
-289 290 0
6 18 -289 0
290 -294 399 0
290 291 292 -294 0
-290 294 0
-290 -292 -399 0
-290 -291 -399 0
-81 291 434 0
-291 -434 0
81 -291 0
-74 -81 292 427 0
-74 292 -293 427 0
-292 -427 0
74 -292 0
81 -292 293 0
293 430 431 0
293 -410 431 0
293 398 410 -431 0
-293 -398 -431 0
-293 -410 -431 0
-293 410 -430 431 0
294 -295 -306 -307 -322 0
-294 322 0
-294 295 0
-294 307 0
-294 306 0
282 295 -296 302 -303 0
-295 296 0
-295 -302 0
-282 -295 0
-295 303 0
296 -297 -527 0
-137 296 -297 0
-202 296 -297 0
-296 297 0
137 202 -296 527 0
297 298 -300 0
297 298 376 0
-297 -298 0
-297 300 -376 0
137 298 509 -510 0
137 298 299 509 0
-298 -509 0
-137 -298 0
-298 -299 510 0
299 477 499 0
-299 -477 0
-299 -499 0
300 -378 -379 0
300 378 380 0
300 301 -378 0
-300 378 -380 0
-300 -301 -378 379 0
301 -375 377 0
-301 375 0
-301 -377 0
-137 302 -500 0
302 500 511 0
-302 500 -511 0
137 -302 -500 0
303 304 -369 0
262 303 304 0
-303 -304 0
-262 -303 369 0
304 305 -388 0
304 -388 389 -390 0
-304 388 0
-304 -305 -389 0
-304 -305 390 0
305 386 -414 -438 0
305 -387 -414 -438 0
-305 438 0
-305 414 0
-305 -386 387 0
-120 306 -527 0
-120 -136 -302 306 0
120 -306 0
136 -306 527 0
302 -306 527 0
258 307 -308 -313 -318 0
-258 -307 0
-307 318 0
-307 313 0
-307 308 0
264 308 309 -311 0
114 308 309 -311 0
-308 311 0
-308 -309 0
-114 -264 -308 0
309 -310 -392 -393 394 0
-309 310 0
-309 392 0
-309 393 0
-309 -394 0
310 -384 -391 0
-310 384 0
-310 391 0
264 311 -371 0
311 312 -373 0
311 -371 -373 0
264 311 312 0
-311 -312 371 0
-264 -311 373 0
149 312 463 0
-312 -463 0
-149 -312 0
262 313 -314 -315 -316 0
-262 -313 0
-313 316 0
-313 315 0
-313 314 0
314 -368 401 0
314 -435 -502 0
314 401 -502 0
314 -368 -435 0
-314 -401 435 0
-314 368 502 0
315 -423 512 0
315 414 -519 0
315 414 512 0
315 -423 -519 0
-315 -414 423 0
-315 -512 519 0
316 317 -480 0
-149 316 317 371 0
-316 -317 0
-316 -371 480 0
149 -316 480 0
317 -388 407 0
317 -388 389 408 0
-317 388 0
-317 -389 -407 0
-317 -407 -408 0
-245 318 -319 321 0
318 -319 321 367 0
-318 319 0
-318 -321 0
245 -318 -367 0
-137 -148 319 0
319 -320 -512 0
-137 319 -512 0
-148 319 -320 0
137 -319 320 0
148 -319 512 0
320 -396 -435 -461 0
320 411 -435 -461 0
-320 461 0
-320 435 0
-320 396 -411 0
148 321 519 0
148 321 530 0
148 321 503 0
-148 -321 0
-321 -503 -519 -530 0
259 266 322 -323 -331 0
-259 -322 0
-322 331 0
-322 323 0
-266 -322 0
323 -324 -325 -327 -329 0
-323 329 0
-323 324 0
-323 327 0
-323 325 0
324 -455 0
324 373 388 438 0
-324 -373 455 0
-324 -388 455 0
-324 -438 455 0
325 326 -503 0
325 326 369 489 0
-325 -326 0
-325 -489 503 0
-325 -369 503 0
326 396 -397 -398 0
-326 398 0
-326 397 0
-326 -396 0
327 328 -384 -385 0
327 328 384 -393 0
-327 -328 0
-327 -384 385 0
-327 384 393 0
328 -372 -454 0
328 372 454 0
-328 372 -454 0
-328 -372 454 0
329 330 382 0
329 330 -381 0
329 330 383 0
-329 -330 0
-329 381 -382 -383 0
330 384 -392 395 0
330 384 391 -392 0
-330 -384 0
-330 392 0
-330 -391 -395 0
331 -332 -338 -341 -344 0
-331 344 0
-331 332 0
-331 341 0
-331 338 0
332 -333 -334 -336 -337 0
-332 337 0
-332 333 0
-332 336 0
-332 334 0
333 -393 -401 -421 0
333 -401 -402 -421 0
-333 421 0
-333 401 0
-333 393 402 0
334 335 368 0
334 335 502 0
-334 -335 0
-334 -368 -502 0
335 -420 469 0
-335 420 0
-335 -469 0
336 -458 -461 -468 -478 0
-336 478 0
-336 458 0
-336 468 0
-336 461 0
337 422 -426 -453 454 0
-337 -422 0
-337 -454 0
-337 453 0
-337 426 0
338 339 -340 401 0
338 339 -340 -396 0
-338 340 0
-338 -339 0
-338 396 -401 0
339 -374 -422 0
-339 374 0
-339 422 0
340 -370 400 0
340 -399 -479 0
340 -370 -399 0
340 400 -479 0
-340 399 -400 0
-340 370 479 0
341 342 343 366 -518 0
341 342 343 -366 518 0
-341 -342 0
-341 366 518 0
-341 -343 0
-341 -366 -518 0
342 -370 -479 0
-342 370 0
-342 479 0
343 374 422 0
-343 -374 0
-343 -422 0
264 312 344 -345 -347 0
-264 -344 0
-344 347 0
-344 345 0
-312 -344 0
345 346 388 0
345 346 -373 0
345 346 -438 0
-345 -346 0
-345 373 -388 438 0
346 -371 480 0
346 -463 480 0
-346 -480 0
-346 371 463 0
114 137 347 -348 -349 0
-114 -347 0
-347 349 0
-347 348 0
-137 -347 0
348 -506 -517 518 -522 0
-348 522 0
-348 506 0
-348 517 0
-348 -518 0
349 479 -483 -501 502 0
-349 -479 0
-349 -502 0
-349 501 0
-349 483 0
277 350 351 -352 -358 0
-277 -350 0
-350 358 0
-350 352 0
-350 -351 0
-291 292 351 0
291 -351 0
-292 -351 0
352 -353 -355 -509 0
-302 352 -353 -355 0
-352 355 0
-352 353 0
302 -352 509 0
353 354 527 0
353 354 -468 0
136 353 354 0
-353 -354 0
-136 -353 468 -527 0
-7 354 -392 0
-354 392 0
7 -354 0
280 355 -356 -486 0
280 -282 355 -356 0
-355 356 0
-280 -355 0
282 -355 486 0
356 357 -509 0
-259 356 357 0
-356 -357 0
259 -356 509 0
137 357 435 -436 0
137 293 357 435 0
-357 -435 0
-137 -357 0
-293 -357 436 0
233 274 358 0
203 358 434 0
203 274 358 0
233 358 434 0
-203 -233 -358 0
-274 -358 -434 0
70 -89 359 0
-70 -359 0
89 -359 0
263 287 360 -361 0
-252 263 360 -361 0
-360 361 0
-263 -360 0
252 -287 -360 0
252 361 362 0
-278 361 362 371 0
-361 -362 0
-252 278 -361 0
-252 -361 -371 0
-351 362 -373 0
362 363 -373 0
9 362 -373 0
-362 373 0
-9 351 -362 -363 0
264 363 364 388 0
264 363 364 -438 0
-363 -364 0
-264 -363 0
-363 -388 438 0
137 364 435 0
-364 -435 0
-137 -364 0
232 365 527 533 0
-70 232 365 533 0
-232 -365 0
-365 -533 0
70 -365 -527 0
1 2 0
-1 -2 0
674 0

